PROBLEM NAME: tiny_n5_m4
KNAPSACK DATA TYPE: uncorrelated
DIMENSION: 5
NUMBER OF ITEMS: 4
CAPACITY OF KNAPSACK: 20
MIN SPEED: 0.1
MAX SPEED: 1.0
RENTING RATIO: 2.0
EDGE_WEIGHT_TYPE: EUC_2D
NODE_COORD_SECTION
1 0 0
2 3 0
3 10 2
4 8 8
5 1 7
ITEMS SECTION
1 100 12 2
2 80 8 3
3 60 15 4
4 50 6 5
